\* Heart_Disease_LPDA *\
Minimize
OBJ: 0.00909090909091 u0 + 0.00909090909091 u1 + 0.00909090909091 u10
 + 0.00909090909091 u100 + 0.00909090909091 u101 + 0.00909090909091 u102
 + 0.00909090909091 u103 + 0.00909090909091 u104 + 0.00909090909091 u105
 + 0.00909090909091 u106 + 0.00909090909091 u107 + 0.00909090909091 u108
 + 0.00909090909091 u109 + 0.00909090909091 u11 + 0.00909090909091 u12
 + 0.00909090909091 u13 + 0.00909090909091 u14 + 0.00909090909091 u15
 + 0.00909090909091 u16 + 0.00909090909091 u17 + 0.00909090909091 u18
 + 0.00909090909091 u19 + 0.00909090909091 u2 + 0.00909090909091 u20
 + 0.00909090909091 u21 + 0.00909090909091 u22 + 0.00909090909091 u23
 + 0.00909090909091 u24 + 0.00909090909091 u25 + 0.00909090909091 u26
 + 0.00909090909091 u27 + 0.00909090909091 u28 + 0.00909090909091 u29
 + 0.00909090909091 u3 + 0.00909090909091 u30 + 0.00909090909091 u31
 + 0.00909090909091 u32 + 0.00909090909091 u33 + 0.00909090909091 u34
 + 0.00909090909091 u35 + 0.00909090909091 u36 + 0.00909090909091 u37
 + 0.00909090909091 u38 + 0.00909090909091 u39 + 0.00909090909091 u4
 + 0.00909090909091 u40 + 0.00909090909091 u41 + 0.00909090909091 u42
 + 0.00909090909091 u43 + 0.00909090909091 u44 + 0.00909090909091 u45
 + 0.00909090909091 u46 + 0.00909090909091 u47 + 0.00909090909091 u48
 + 0.00909090909091 u49 + 0.00909090909091 u5 + 0.00909090909091 u50
 + 0.00909090909091 u51 + 0.00909090909091 u52 + 0.00909090909091 u53
 + 0.00909090909091 u54 + 0.00909090909091 u55 + 0.00909090909091 u56
 + 0.00909090909091 u57 + 0.00909090909091 u58 + 0.00909090909091 u59
 + 0.00909090909091 u6 + 0.00909090909091 u60 + 0.00909090909091 u61
 + 0.00909090909091 u62 + 0.00909090909091 u63 + 0.00909090909091 u64
 + 0.00909090909091 u65 + 0.00909090909091 u66 + 0.00909090909091 u67
 + 0.00909090909091 u68 + 0.00909090909091 u69 + 0.00909090909091 u7
 + 0.00909090909091 u70 + 0.00909090909091 u71 + 0.00909090909091 u72
 + 0.00909090909091 u73 + 0.00909090909091 u74 + 0.00909090909091 u75
 + 0.00909090909091 u76 + 0.00909090909091 u77 + 0.00909090909091 u78
 + 0.00909090909091 u79 + 0.00909090909091 u8 + 0.00909090909091 u80
 + 0.00909090909091 u81 + 0.00909090909091 u82 + 0.00909090909091 u83
 + 0.00909090909091 u84 + 0.00909090909091 u85 + 0.00909090909091 u86
 + 0.00909090909091 u87 + 0.00909090909091 u88 + 0.00909090909091 u89
 + 0.00909090909091 u9 + 0.00909090909091 u90 + 0.00909090909091 u91
 + 0.00909090909091 u92 + 0.00909090909091 u93 + 0.00909090909091 u94
 + 0.00909090909091 u95 + 0.00909090909091 u96 + 0.00909090909091 u97
 + 0.00909090909091 u98 + 0.00909090909091 u99 + 0.00757575757576 v0
 + 0.00757575757576 v1 + 0.00757575757576 v10 + 0.00757575757576 v100
 + 0.00757575757576 v101 + 0.00757575757576 v102 + 0.00757575757576 v103
 + 0.00757575757576 v104 + 0.00757575757576 v105 + 0.00757575757576 v106
 + 0.00757575757576 v107 + 0.00757575757576 v108 + 0.00757575757576 v109
 + 0.00757575757576 v11 + 0.00757575757576 v110 + 0.00757575757576 v111
 + 0.00757575757576 v112 + 0.00757575757576 v113 + 0.00757575757576 v114
 + 0.00757575757576 v115 + 0.00757575757576 v116 + 0.00757575757576 v117
 + 0.00757575757576 v118 + 0.00757575757576 v119 + 0.00757575757576 v12
 + 0.00757575757576 v120 + 0.00757575757576 v121 + 0.00757575757576 v122
 + 0.00757575757576 v123 + 0.00757575757576 v124 + 0.00757575757576 v125
 + 0.00757575757576 v126 + 0.00757575757576 v127 + 0.00757575757576 v128
 + 0.00757575757576 v129 + 0.00757575757576 v13 + 0.00757575757576 v130
 + 0.00757575757576 v131 + 0.00757575757576 v14 + 0.00757575757576 v15
 + 0.00757575757576 v16 + 0.00757575757576 v17 + 0.00757575757576 v18
 + 0.00757575757576 v19 + 0.00757575757576 v2 + 0.00757575757576 v20
 + 0.00757575757576 v21 + 0.00757575757576 v22 + 0.00757575757576 v23
 + 0.00757575757576 v24 + 0.00757575757576 v25 + 0.00757575757576 v26
 + 0.00757575757576 v27 + 0.00757575757576 v28 + 0.00757575757576 v29
 + 0.00757575757576 v3 + 0.00757575757576 v30 + 0.00757575757576 v31
 + 0.00757575757576 v32 + 0.00757575757576 v33 + 0.00757575757576 v34
 + 0.00757575757576 v35 + 0.00757575757576 v36 + 0.00757575757576 v37
 + 0.00757575757576 v38 + 0.00757575757576 v39 + 0.00757575757576 v4
 + 0.00757575757576 v40 + 0.00757575757576 v41 + 0.00757575757576 v42
 + 0.00757575757576 v43 + 0.00757575757576 v44 + 0.00757575757576 v45
 + 0.00757575757576 v46 + 0.00757575757576 v47 + 0.00757575757576 v48
 + 0.00757575757576 v49 + 0.00757575757576 v5 + 0.00757575757576 v50
 + 0.00757575757576 v51 + 0.00757575757576 v52 + 0.00757575757576 v53
 + 0.00757575757576 v54 + 0.00757575757576 v55 + 0.00757575757576 v56
 + 0.00757575757576 v57 + 0.00757575757576 v58 + 0.00757575757576 v59
 + 0.00757575757576 v6 + 0.00757575757576 v60 + 0.00757575757576 v61
 + 0.00757575757576 v62 + 0.00757575757576 v63 + 0.00757575757576 v64
 + 0.00757575757576 v65 + 0.00757575757576 v66 + 0.00757575757576 v67
 + 0.00757575757576 v68 + 0.00757575757576 v69 + 0.00757575757576 v7
 + 0.00757575757576 v70 + 0.00757575757576 v71 + 0.00757575757576 v72
 + 0.00757575757576 v73 + 0.00757575757576 v74 + 0.00757575757576 v75
 + 0.00757575757576 v76 + 0.00757575757576 v77 + 0.00757575757576 v78
 + 0.00757575757576 v79 + 0.00757575757576 v8 + 0.00757575757576 v80
 + 0.00757575757576 v81 + 0.00757575757576 v82 + 0.00757575757576 v83
 + 0.00757575757576 v84 + 0.00757575757576 v85 + 0.00757575757576 v86
 + 0.00757575757576 v87 + 0.00757575757576 v88 + 0.00757575757576 v89
 + 0.00757575757576 v9 + 0.00757575757576 v90 + 0.00757575757576 v91
 + 0.00757575757576 v92 + 0.00757575757576 v93 + 0.00757575757576 v94
 + 0.00757575757576 v95 + 0.00757575757576 v96 + 0.00757575757576 v97
 + 0.00757575757576 v98 + 0.00757575757576 v99
Subject To
u_const_0: 40 a0 + a1 + a10 + 3 a12 + 110 a3 + 167 a4 + 114 a7 + a8 + 2 a9 - b
 + u0 >= 1
u_const_1: 61 a0 + a1 + 2 a10 + a11 + 3 a12 + 148 a3 + 203 a4 + a6 + 161 a7
 - b + u1 >= 1
u_const_10: 58 a0 + a1 + 3 a11 + a12 + 114 a3 + 318 a4 + 2 a6 + 140 a7
 + 4.4 a9 - b + u10 >= 1
u_const_100: 62 a0 + a10 + 3 a11 + 2 a12 + 138 a3 + 294 a4 + a5 + a6 + 106 a7
 + 1.9 a9 - b + u100 >= 1
u_const_101: 35 a0 + a1 + 2 a10 + 3 a12 + 126 a3 + 282 a4 + 156 a7 + a8 - b
 + u101 >= 1
u_const_102: 59 a0 + a1 + 2 a10 + 2 a11 + 2 a12 + 3 a2 + 134 a3 + 204 a4 + a6
 + 162 a7 + 0.8 a9 - b + u102 >= 1
u_const_103: 57 a0 + a10 + a11 + 2 a12 + a2 + 130 a3 + 236 a4 + 174 a7 - b
 + u103 >= 1
u_const_104: 44 a0 + a1 + 2 a10 + a11 + 2 a12 + 112 a3 + 290 a4 + 153 a7 - b
 + u104 >= 1
u_const_105: 58 a0 + a1 + 2 a10 + 2 a11 + 3 a12 + 125 a3 + 300 a4 + 171 a7 - b
 + u105 >= 1
u_const_106: 61 a0 + a1 + a10 + 2 a11 + 2 a12 + 3 a2 + 134 a3 + 234 a4 + a6
 + 145 a7 + 2.6 a9 - b + u106 >= 1
u_const_107: 57 a0 + a1 + a10 + a11 + a12 + 150 a3 + 276 a4 + 112 a7 + a8
 + 0.6 a9 - b + u107 >= 1
u_const_108: 50 a0 + a1 + a10 + 3 a12 + 144 a3 + 200 a4 + 126 a7 + a8 + 0.9 a9
 - b + u108 >= 1
u_const_109: 49 a0 + a1 + 2 a10 + 3 a11 + 2 a12 + 2 a2 + 118 a3 + 149 a4
 + 126 a7 + 0.8 a9 - b + u109 >= 1
u_const_11: 55 a0 + a10 + 2 a12 + 180 a3 + 327 a4 + 2 a6 + 117 a7 + a8
 + 3.4 a9 - b + u11 >= 1
u_const_12: 52 a0 + a1 + 2 a10 + a11 + 3 a12 + 128 a3 + 255 a4 + a6 + 161 a7
 + a8 - b + u12 >= 1
u_const_13: 41 a0 + a1 + 2 a10 + 3 a12 + 110 a3 + 172 a4 + 158 a7 - b + u13
 >= 1
u_const_14: 70 a0 + a1 + 3 a12 + 145 a3 + 174 a4 + a6 + 125 a7 + a8 + 2.6 a9
 - b + u14 >= 1
u_const_15: 55 a0 + a10 + a11 + 3 a12 + 128 a3 + 205 a4 + 2 a6 + 130 a7 + a8
 + 2 a9 - b + u15 >= 1
u_const_16: 38 a0 + a1 + a10 + 3 a12 + 3 a2 + 120 a3 + 231 a4 + a6 + 182 a7
 + a8 + 3.8 a9 - b + u16 >= 1
u_const_17: 59 a0 + a1 + 2 a10 + a11 + 3 a12 + 140 a3 + 177 a4 + a6 + 162 a7
 + a8 - b + u17 >= 1
u_const_18: 55 a0 + a1 + a10 + a11 + 3 a12 + 132 a3 + 353 a4 + a6 + 132 a7
 + a8 + 1.2 a9 - b + u18 >= 1
u_const_19: 61 a0 + a1 + 2 a10 + a11 + 3 a12 + 140 a3 + 207 a4 + 138 a7 + a8
 + 1.9 a9 - b + u19 >= 1
u_const_2: 62 a0 + a10 + a11 + 3 a12 + 2 a2 + 130 a3 + 263 a4 + a6 + 97 a7
 + 1.2 a9 - b + u2 >= 1
u_const_20: 62 a0 + 3 a11 + 3 a12 + 160 a3 + 164 a4 + 145 a7 + 6.2 a9 - b
 + u20 >= 1
u_const_21: 54 a0 + a1 + a10 + a11 + 3 a12 + 124 a3 + 266 a4 + 109 a7 + a8
 + 2.2 a9 - b + u21 >= 1
u_const_22: 63 a0 + a10 + 3 a11 + 3 a12 + 150 a3 + 407 a4 + 154 a7 + 4 a9 - b
 + u22 >= 1
u_const_23: 44 a0 + a1 + a12 + 120 a3 + 169 a4 + a6 + 144 a7 + a8 + 2.8 a9 - b
 + u23 >= 1
u_const_24: 63 a0 + a10 + 2 a11 + 2 a12 + 108 a3 + 269 a4 + a6 + 169 a7 + a8
 + 1.8 a9 - b + u24 >= 1
u_const_25: 39 a0 + a1 + a10 + 3 a12 + 118 a3 + 219 a4 + a6 + 140 a7 + 1.2 a9
 - b + u25 >= 1
u_const_26: 59 a0 + a1 + 3 a12 + 170 a3 + 326 a4 + 140 a7 + a8 + 3.4 a9 - b
 + u26 >= 1
u_const_27: 56 a0 + a10 + 2 a11 + 3 a12 + 134 a3 + 409 a4 + 150 a7 + a8
 + 1.9 a9 - b + u27 >= 1
u_const_28: 57 a0 + a10 + 3 a12 + 140 a3 + 241 a4 + a6 + 123 a7 + a8 + 0.2 a9
 - b + u28 >= 1
u_const_29: 60 a0 + a1 + a10 + 2 a11 + 3 a12 + 130 a3 + 206 a4 + 132 a7 + a8
 + 2.4 a9 - b + u29 >= 1
u_const_3: 60 a0 + a1 + 2 a10 + 2 a11 + 3 a12 + 117 a3 + 230 a4 + a5 + a6
 + 160 a7 + a8 + 1.4 a9 - b + u3 >= 1
u_const_30: 62 a0 + a1 + a10 + 2 a11 + 3 a12 + 120 a3 + 267 a4 + a6 + 99 a7
 + a8 + 1.8 a9 - b + u30 >= 1
u_const_31: 52 a0 + a1 + 2 a10 + 2 a11 + 3 a12 + 125 a3 + 212 a4 + a6 + 168 a7
 + a9 - b + u31 >= 1
u_const_32: 51 a0 + a10 + 3 a12 + 130 a3 + 305 a4 + a6 + 142 a7 + a8 + 1.2 a9
 - b + u32 >= 1
u_const_33: 69 a0 + a1 + a10 + 3 a11 + 3 a12 + 2 a2 + 140 a3 + 254 a4 + 146 a7
 + 2 a9 - b + u33 >= 1
u_const_34: 35 a0 + a1 + a10 + 3 a12 + 120 a3 + 198 a4 + a6 + 130 a7 + a8
 + 1.6 a9 - b + u34 >= 1
u_const_35: 60 a0 + a1 + a10 + 2 a11 + 3 a12 + 145 a3 + 282 a4 + 142 a7 + a8
 + 2.8 a9 - b + u35 >= 1
u_const_36: 57 a0 + a1 + a10 + 3 a11 + 3 a12 + 165 a3 + 289 a4 + a5 + 124 a7
 + a9 - b + u36 >= 1
u_const_37: 70 a0 + a1 + a10 + 3 a11 + 2 a12 + 130 a3 + 322 a4 + 109 a7
 + 2.4 a9 - b + u37 >= 1
u_const_38: 65 a0 + a1 + a10 + a11 + 3 a12 + 135 a3 + 254 a4 + 127 a7 + 2.8 a9
 - b + u38 >= 1
u_const_39: 56 a0 + a1 + a10 + a11 + a12 + 2 a2 + 130 a3 + 256 a4 + a5
 + 142 a7 + a8 + 0.6 a9 - b + u39 >= 1
u_const_4: 58 a0 + a10 + 2 a11 + a12 + 170 a3 + 225 a4 + a5 + 146 a7 + a8
 + 2.8 a9 - b + u4 >= 1
u_const_40: 57 a0 + a1 + a10 + a11 + 3 a12 + 152 a3 + 274 a4 + a6 + 88 a7 + a8
 + 1.2 a9 - b + u40 >= 1
u_const_41: 54 a0 + a1 + 2 a10 + a11 + 3 a12 + a2 + 192 a3 + 283 a4 + 195 a7
 - b + u41 >= 1
u_const_42: 56 a0 + a1 + a10 + a11 + 2 a12 + 125 a3 + 249 a4 + a5 + 144 a7
 + a8 + 1.2 a9 - b + u42 >= 1
u_const_43: 44 a0 + a1 + 2 a10 + a11 + 2 a12 + 110 a3 + 197 a4 + 177 a7 - b
 + u43 >= 1
u_const_44: 65 a0 + a1 + 2 a10 + 2 a11 + a12 + 110 a3 + 248 a4 + 158 a7
 + 0.6 a9 - b + u44 >= 1
u_const_45: 66 a0 + a10 + 2 a11 + 3 a12 + 178 a3 + 228 a4 + a5 + a6 + 165 a7
 + a8 + a9 - b + u45 >= 1
u_const_46: 58 a0 + a1 + a10 + 2 a12 + a2 + 120 a3 + 284 a4 + 160 a7 + 1.8 a9
 - b + u46 >= 1
u_const_47: 49 a0 + a1 + a10 + 3 a11 + 3 a12 + 2 a2 + 120 a3 + 188 a4 + a6
 + 139 a7 + 2 a9 - b + u47 >= 1
u_const_48: 51 a0 + a1 + 2 a10 + 3 a12 + 140 a3 + 299 a4 + a6 + 173 a7 + a8
 + 1.6 a9 - b + u48 >= 1
u_const_49: 66 a0 + a1 + a10 + 3 a11 + a12 + a2 + 160 a3 + 246 a4 + a6
 + 120 a7 + a8 - b + u49 >= 1
u_const_5: 64 a0 + a1 + a10 + 2 a11 + a12 + 145 a3 + 212 a4 + 132 a7 + 2 a9
 - b + u5 >= 1
u_const_50: 42 a0 + a1 + a10 + a12 + 136 a3 + 315 a4 + a6 + 125 a7 + a8
 + 1.8 a9 - b + u50 >= 1
u_const_51: 63 a0 + a1 + 2 a10 + 2 a11 + 3 a12 + 140 a3 + 187 a4 + 144 a7 + a8
 + 4 a9 - b + u51 >= 1
u_const_52: 58 a0 + a1 + 2 a10 + 2 a11 + 3 a12 + 2 a2 + 132 a3 + 224 a4
 + 173 a7 + 3.2 a9 - b + u52 >= 1
u_const_53: 43 a0 + a1 + a10 + 3 a12 + 120 a3 + 177 a4 + 120 a7 + a8 + 2.5 a9
 - b + u53 >= 1
u_const_54: 66 a0 + a1 + 2 a10 + a11 + 2 a12 + 112 a3 + 212 a4 + 132 a7 + a8
 + 0.1 a9 - b + u54 >= 1
u_const_55: 63 a0 + a1 + a10 + a11 + 3 a12 + 130 a3 + 254 a4 + 147 a7 + 1.4 a9
 - b + u55 >= 1
u_const_56: 61 a0 + 2 a10 + 2 a12 + 130 a3 + 330 a4 + 169 a7 - b + u56 >= 1
u_const_57: 68 a0 + a1 + a10 + 3 a12 + 2 a2 + 180 a3 + 274 a4 + a5 + 150 a7
 + a8 + 1.6 a9 - b + u57 >= 1
u_const_58: 60 a0 + a1 + a10 + 2 a11 + 3 a12 + 140 a3 + 293 a4 + 170 a7
 + 1.2 a9 - b + u58 >= 1
u_const_59: 57 a0 + a1 + 2 a10 + 3 a12 + a2 + 124 a3 + 261 a4 + a6 + 141 a7
 + 0.3 a9 - b + u59 >= 1
u_const_6: 48 a0 + a1 + a10 + 3 a12 + 124 a3 + 274 a4 + 166 a7 + 0.5 a9 - b
 + u6 >= 1
u_const_60: 48 a0 + a1 + 3 a12 + a2 + 110 a3 + 229 a4 + a6 + 168 a7 + a9 - b
 + u60 >= 1
u_const_61: 62 a0 + a10 + 2 a12 + 150 a3 + 244 a4 + a6 + 154 a7 + a8 + 1.4 a9
 - b + u61 >= 1
u_const_62: 57 a0 + a1 + a10 + a11 + 3 a12 + 110 a3 + 335 a4 + a6 + 143 a7
 + a8 + 3 a9 - b + u62 >= 1
u_const_63: 61 a0 + a1 + a10 + a11 + 2 a12 + 138 a3 + 166 a4 + 125 a7 + a8
 + 3.6 a9 - b + u63 >= 1
u_const_64: 48 a0 + a1 + 2 a10 + 2 a11 + 3 a12 + 130 a3 + 256 a4 + a5 + 150 a7
 + a8 - b + u64 >= 1
u_const_65: 43 a0 + a10 + 3 a12 + 132 a3 + 341 a4 + a5 + 136 a7 + a8 + 3 a9
 - b + u65 >= 1
u_const_66: 52 a0 + a1 + 2 a10 + a11 + 2 a12 + 112 a3 + 230 a4 + a6 + 160 a7
 - b + u66 >= 1
u_const_67: 61 a0 + a1 + a10 + a11 + 3 a12 + 120 a3 + 260 a4 + a6 + 140 a7
 + a8 + 3.6 a9 - b + u67 >= 1
u_const_68: 53 a0 + a1 + a10 + 2 a11 + 3 a12 + 123 a3 + 282 a4 + a6 + 95 a7
 + a8 + 2 a9 - b + u68 >= 1
u_const_69: 62 a0 + a1 + a10 + a11 + 3 a12 + a2 + 120 a3 + 281 a4 + 103 a7
 + 1.4 a9 - b + u69 >= 1
u_const_7: 45 a0 + a1 + a10 + 3 a12 + 3 a2 + 110 a3 + 264 a4 + a6 + 132 a7
 + 1.2 a9 - b + u7 >= 1
u_const_70: 68 a0 + a1 + a10 + 2 a11 + 3 a12 + 144 a3 + 193 a4 + a5 + a6
 + 141 a7 + 3.4 a9 - b + u70 >= 1
u_const_71: 56 a0 + a1 + a10 + a11 + a12 + 132 a3 + 184 a4 + 105 a7 + a8
 + 2.1 a9 - b + u71 >= 1
u_const_72: 58 a0 + 2 a10 + 2 a11 + 2 a12 + a2 + 136 a3 + 319 a4 + a5 + 152 a7
 - b + u72 >= 1
u_const_73: 58 a0 + a1 + a10 + 2 a11 + 3 a12 + 128 a3 + 259 a4 + 130 a7 + a8
 + 3 a9 - b + u73 >= 1
u_const_74: 59 a0 + a1 + a10 + a11 + 3 a12 + 110 a3 + 239 a4 + 142 a7 + a8
 + 1.2 a9 - b + u74 >= 1
u_const_75: 56 a0 + 2 a11 + 3 a12 + 200 a3 + 288 a4 + a5 + 133 a7 + a8 + 4 a9
 - b + u75 >= 1
u_const_76: 45 a0 + a1 + a10 + 3 a11 + 3 a12 + 142 a3 + 309 a4 + 147 a7 + a8
 - b + u76 >= 1
u_const_77: 61 a0 + a10 + 3 a12 + 145 a3 + 307 a4 + 146 a7 + a8 + a9 - b + u77
 >= 1
u_const_78: 67 a0 + a1 + a10 + 2 a11 + 2 a12 + 100 a3 + 299 a4 + 125 a7 + a8
 + 0.9 a9 - b + u78 >= 1
u_const_79: 40 a0 + a1 + 2 a10 + 3 a12 + 152 a3 + 223 a4 + a6 + 181 a7 - b
 + u79 >= 1
u_const_8: 63 a0 + a10 + 2 a12 + 124 a3 + 197 a4 + a6 + 136 a7 + a8 - b + u8
 >= 1
u_const_80: 57 a0 + a1 + 2 a10 + a11 + 2 a12 + a2 + 154 a3 + 232 a4 + 164 a7
 - b + u80 >= 1
u_const_81: 65 a0 + a1 + a10 + a11 + 2 a12 + 3 a2 + 138 a3 + 282 a4 + a5
 + 174 a7 + 1.4 a9 - b + u81 >= 1
u_const_82: 70 a0 + a1 + a10 + a11 + 3 a12 + 2 a2 + 160 a3 + 269 a4 + a6
 + 112 a7 + a8 + 2.9 a9 - b + u82 >= 1
u_const_83: 67 a0 + a1 + a10 + 2 a11 + 3 a12 + 125 a3 + 254 a4 + a5 + a6
 + 163 a7 + 0.2 a9 - b + u83 >= 1
u_const_84: 59 a0 + a1 + a10 + 2 a11 + a12 + 164 a3 + 176 a4 + a5 + 90 a7 + a9
 - b + u84 >= 1
u_const_85: 54 a0 + a1 + a10 + a11 + 3 a12 + 110 a3 + 239 a4 + a6 + 126 a7
 + a8 + 2.8 a9 - b + u85 >= 1
u_const_86: 59 a0 + a1 + a10 + 3 a12 + 3 a2 + 170 a3 + 288 a4 + 159 a7
 + 0.2 a9 - b + u86 >= 1
u_const_87: 46 a0 + a1 + a10 + 2 a11 + 3 a12 + 140 a3 + 311 a4 + a6 + 120 a7
 + a8 + 1.8 a9 - b + u87 >= 1
u_const_88: 58 a0 + a1 + 2 a10 + 3 a12 + 150 a3 + 270 a4 + 111 a7 + a8
 + 0.8 a9 - b + u88 >= 1
u_const_89: 60 a0 + a1 + a10 + 2 a12 + 2 a2 + 140 a3 + 185 a4 + 155 a7 + 3 a9
 - b + u89 >= 1
u_const_9: 67 a0 + a1 + a10 + 3 a11 + 2 a12 + 160 a3 + 286 a4 + 108 a7 + a8
 + 1.5 a9 - b + u9 >= 1
u_const_90: 67 a0 + a1 + a10 + 2 a12 + 120 a3 + 237 a4 + a6 + 71 a7 + a9 - b
 + u90 >= 1
u_const_91: 67 a0 + a1 + a10 + 3 a12 + 2 a2 + 152 a3 + 212 a4 + 150 a7
 + 0.8 a9 - b + u91 >= 1
u_const_92: 67 a0 + a1 + a10 + 2 a11 + 3 a12 + 120 a3 + 229 a4 + 129 a7 + a8
 + 2.6 a9 - b + u92 >= 1
u_const_93: 63 a0 + a1 + 2 a10 + 3 a11 + 3 a12 + 130 a3 + 330 a4 + a5 + 132 a7
 + a8 + 1.8 a9 - b + u93 >= 1
u_const_94: 60 a0 + a1 + 2 a10 + a11 + 3 a12 + 130 a3 + 253 a4 + a6 + 144 a7
 + a8 + 1.4 a9 - b + u94 >= 1
u_const_95: 62 a0 + 2 a11 + 2 a12 + 140 a3 + 268 a4 + 160 a7 + 3.6 a9 - b
 + u95 >= 1
u_const_96: 50 a0 + a1 + a10 + a11 + 3 a12 + 2 a2 + 140 a3 + 233 a4 + a6
 + 163 a7 + 0.6 a9 - b + u96 >= 1
u_const_97: 54 a0 + a1 + a10 + 2 a11 + 2 a12 + 122 a3 + 286 a4 + 116 a7 + a8
 + 3.2 a9 - b + u97 >= 1
u_const_98: 54 a0 + a1 + a10 + a11 + 2 a12 + 110 a3 + 206 a4 + 108 a7 + a8 - b
 + u98 >= 1
u_const_99: 52 a0 + a1 + a10 + 128 a3 + 204 a4 + a5 + a6 + 156 a7 + a8 + a9
 - b + u99 >= 1
u_const_non_negativity_0: u0 >= 0
u_const_non_negativity_1: u1 >= 0
u_const_non_negativity_10: u10 >= 0
u_const_non_negativity_100: u100 >= 0
u_const_non_negativity_101: u101 >= 0
u_const_non_negativity_102: u102 >= 0
u_const_non_negativity_103: u103 >= 0
u_const_non_negativity_104: u104 >= 0
u_const_non_negativity_105: u105 >= 0
u_const_non_negativity_106: u106 >= 0
u_const_non_negativity_107: u107 >= 0
u_const_non_negativity_108: u108 >= 0
u_const_non_negativity_109: u109 >= 0
u_const_non_negativity_11: u11 >= 0
u_const_non_negativity_12: u12 >= 0
u_const_non_negativity_13: u13 >= 0
u_const_non_negativity_14: u14 >= 0
u_const_non_negativity_15: u15 >= 0
u_const_non_negativity_16: u16 >= 0
u_const_non_negativity_17: u17 >= 0
u_const_non_negativity_18: u18 >= 0
u_const_non_negativity_19: u19 >= 0
u_const_non_negativity_2: u2 >= 0
u_const_non_negativity_20: u20 >= 0
u_const_non_negativity_21: u21 >= 0
u_const_non_negativity_22: u22 >= 0
u_const_non_negativity_23: u23 >= 0
u_const_non_negativity_24: u24 >= 0
u_const_non_negativity_25: u25 >= 0
u_const_non_negativity_26: u26 >= 0
u_const_non_negativity_27: u27 >= 0
u_const_non_negativity_28: u28 >= 0
u_const_non_negativity_29: u29 >= 0
u_const_non_negativity_3: u3 >= 0
u_const_non_negativity_30: u30 >= 0
u_const_non_negativity_31: u31 >= 0
u_const_non_negativity_32: u32 >= 0
u_const_non_negativity_33: u33 >= 0
u_const_non_negativity_34: u34 >= 0
u_const_non_negativity_35: u35 >= 0
u_const_non_negativity_36: u36 >= 0
u_const_non_negativity_37: u37 >= 0
u_const_non_negativity_38: u38 >= 0
u_const_non_negativity_39: u39 >= 0
u_const_non_negativity_4: u4 >= 0
u_const_non_negativity_40: u40 >= 0
u_const_non_negativity_41: u41 >= 0
u_const_non_negativity_42: u42 >= 0
u_const_non_negativity_43: u43 >= 0
u_const_non_negativity_44: u44 >= 0
u_const_non_negativity_45: u45 >= 0
u_const_non_negativity_46: u46 >= 0
u_const_non_negativity_47: u47 >= 0
u_const_non_negativity_48: u48 >= 0
u_const_non_negativity_49: u49 >= 0
u_const_non_negativity_5: u5 >= 0
u_const_non_negativity_50: u50 >= 0
u_const_non_negativity_51: u51 >= 0
u_const_non_negativity_52: u52 >= 0
u_const_non_negativity_53: u53 >= 0
u_const_non_negativity_54: u54 >= 0
u_const_non_negativity_55: u55 >= 0
u_const_non_negativity_56: u56 >= 0
u_const_non_negativity_57: u57 >= 0
u_const_non_negativity_58: u58 >= 0
u_const_non_negativity_59: u59 >= 0
u_const_non_negativity_6: u6 >= 0
u_const_non_negativity_60: u60 >= 0
u_const_non_negativity_61: u61 >= 0
u_const_non_negativity_62: u62 >= 0
u_const_non_negativity_63: u63 >= 0
u_const_non_negativity_64: u64 >= 0
u_const_non_negativity_65: u65 >= 0
u_const_non_negativity_66: u66 >= 0
u_const_non_negativity_67: u67 >= 0
u_const_non_negativity_68: u68 >= 0
u_const_non_negativity_69: u69 >= 0
u_const_non_negativity_7: u7 >= 0
u_const_non_negativity_70: u70 >= 0
u_const_non_negativity_71: u71 >= 0
u_const_non_negativity_72: u72 >= 0
u_const_non_negativity_73: u73 >= 0
u_const_non_negativity_74: u74 >= 0
u_const_non_negativity_75: u75 >= 0
u_const_non_negativity_76: u76 >= 0
u_const_non_negativity_77: u77 >= 0
u_const_non_negativity_78: u78 >= 0
u_const_non_negativity_79: u79 >= 0
u_const_non_negativity_8: u8 >= 0
u_const_non_negativity_80: u80 >= 0
u_const_non_negativity_81: u81 >= 0
u_const_non_negativity_82: u82 >= 0
u_const_non_negativity_83: u83 >= 0
u_const_non_negativity_84: u84 >= 0
u_const_non_negativity_85: u85 >= 0
u_const_non_negativity_86: u86 >= 0
u_const_non_negativity_87: u87 >= 0
u_const_non_negativity_88: u88 >= 0
u_const_non_negativity_89: u89 >= 0
u_const_non_negativity_9: u9 >= 0
u_const_non_negativity_90: u90 >= 0
u_const_non_negativity_91: u91 >= 0
u_const_non_negativity_92: u92 >= 0
u_const_non_negativity_93: u93 >= 0
u_const_non_negativity_94: u94 >= 0
u_const_non_negativity_95: u95 >= 0
u_const_non_negativity_96: u96 >= 0
u_const_non_negativity_97: u97 >= 0
u_const_non_negativity_98: u98 >= 0
u_const_non_negativity_99: u99 >= 0
v_const_0: - 42 a0 - a10 - 2 a12 - 102 a3 - 265 a4 - 122 a7 - 0.6 a9 + b + v0
 >= 1
v_const_1: - 41 a0 - 2 a10 - 2 a12 - a2 - 130 a3 - 204 a4 - 172 a7 - 1.4 a9
 + b + v1 >= 1
v_const_10: - 54 a0 - 2 a10 - a11 - 2 a12 - a2 - 132 a3 - 288 a4 - a5 - 159 a7
 - a8 + b + v10 >= 1
v_const_100: - 41 a0 - a1 - a10 - a12 - a2 - 135 a3 - 203 a4 - a6 - 132 a7 + b
 + v100 >= 1
v_const_101: - 63 a0 - 2 a10 - 2 a12 - 2 a2 - 135 a3 - 252 a4 - 172 a7 + b
 + v101 >= 1
v_const_102: - 45 a0 - a10 - 2 a12 - 138 a3 - 236 a4 - 152 a7 - a8 - 0.2 a9
 + b + v102 >= 1
v_const_103: - 51 a0 - 2 a10 - 2 a12 - 2 a2 - 130 a3 - 256 a4 - 149 a7
 - 0.5 a9 + b + v103 >= 1
v_const_104: - 41 a0 - a1 - 2 a10 - 2 a12 - a2 - 120 a3 - 157 a4 - a6 - 182 a7
 + b + v104 >= 1
v_const_105: - 34 a0 - a1 - 2 a10 - 2 a12 - 3 a2 - 118 a3 - 182 a4 - 174 a7
 + b + v105 >= 1
v_const_106: - 53 a0 - 2 a10 - 2 a2 - 128 a3 - 216 a4 - 115 a7 + b + v106 >= 1
v_const_107: - 54 a0 - a10 - 2 a12 - 2 a2 - 110 a3 - 214 a4 - a6 - 158 a7
 - 1.6 a9 + b + v107 >= 1
v_const_108: - 44 a0 - a1 - 2 a10 - 2 a12 - 2 a2 - 130 a3 - 233 a4 - a6
 - 179 a7 - a8 - 0.4 a9 + b + v108 >= 1
v_const_109: - 45 a0 - a1 - 2 a10 - 2 a12 - 115 a3 - 260 a4 - 185 a7 + b
 + v109 >= 1
v_const_11: - 41 a0 - a1 - 2 a10 - 2 a12 - a2 - 110 a3 - 235 a4 - a6 - 153 a7
 + b + v11 >= 1
v_const_110: - 56 a0 - a1 - 2 a10 - 3 a12 - a2 - 130 a3 - 221 a4 - 163 a7 + b
 + v110 >= 1
v_const_111: - 74 a0 - 2 a10 - a11 - 2 a12 - a2 - 120 a3 - 269 a4 - 121 a7
 - a8 - 0.2 a9 + b + v111 >= 1
v_const_112: - 54 a0 - a1 - 2 a10 - 3 a12 - 2 a2 - 150 a3 - 232 a4 - 165 a7
 - 1.6 a9 + b + v112 >= 1
v_const_113: - 58 a0 - a10 - 2 a12 - 130 a3 - 197 a4 - a6 - 131 a7 - 0.6 a9
 + b + v113 >= 1
v_const_114: - 37 a0 - a1 - 2 a12 - 2 a2 - 130 a3 - 250 a4 - a6 - 187 a7
 - 3.5 a9 + b + v114 >= 1
v_const_115: - 62 a0 - a1 - a10 - 3 a11 - 3 a12 - 2 a2 - 130 a3 - 231 a4 - a6
 - 146 a7 - 1.8 a9 + b + v115 >= 1
v_const_116: - 42 a0 - a1 - 2 a10 - 2 a12 - 2 a2 - 130 a3 - 180 a4 - a6
 - 150 a7 + b + v116 >= 1
v_const_117: - 54 a0 - 2 a10 - a11 - 2 a12 - 2 a2 - 160 a3 - 201 a4 - a6
 - 163 a7 + b + v117 >= 1
v_const_118: - 71 a0 - a10 - 2 a12 - 112 a3 - 149 a4 - a6 - 125 a7 - 1.6 a9
 + b + v118 >= 1
v_const_119: - 42 a0 - a1 - 3 a12 - 2 a2 - 120 a3 - 240 a4 - a5 - a6 - 194 a7
 - 0.8 a9 + b + v119 >= 1
v_const_12: - 54 a0 - 2 a10 - 2 a12 - 2 a2 - 135 a3 - 304 a4 - a5 - a6
 - 170 a7 + b + v12 >= 1
v_const_120: - 53 a0 - a1 - 2 a10 - 3 a11 - 2 a12 - 2 a2 - 130 a3 - 246 a4
 - a5 - 173 a7 + b + v120 >= 1
v_const_121: - 41 a0 - a1 - a10 - 2 a12 - 2 a2 - 130 a3 - 214 a4 - 168 a7
 - 2 a9 + b + v121 >= 1
v_const_122: - 46 a0 - a1 - 2 a10 - 3 a12 - a2 - 101 a3 - 197 a4 - a5 - a6
 - 156 a7 + b + v122 >= 1
v_const_123: - 43 a0 - a10 - 2 a12 - 2 a2 - 122 a3 - 213 a4 - a6 - 165 a7
 - 0.2 a9 + b + v123 >= 1
v_const_124: - 59 a0 - a1 - 2 a10 - 2 a12 - 138 a3 - 271 a4 - 182 a7 + b
 + v124 >= 1
v_const_125: - 38 a0 - a1 - 2 a10 - 4 a11 - 2 a12 - 2 a2 - 138 a3 - 175 a4
 - a6 - 173 a7 + b + v125 >= 1
v_const_126: - 59 a0 - a1 - a10 - 3 a12 - 135 a3 - 234 a4 - a6 - 161 a7
 - 0.5 a9 + b + v126 >= 1
v_const_127: - 51 a0 - a1 - 2 a10 - a11 - 3 a12 - 2 a2 - 94 a3 - 227 a4 - a6
 - 154 a7 - a8 + b + v127 >= 1
v_const_128: - 69 a0 - a1 - a10 - a11 - 2 a12 - 3 a2 - 160 a3 - 234 a4 - a5
 - 131 a7 - 0.1 a9 + b + v128 >= 1
v_const_129: - 58 a0 - 2 a10 - 2 a12 - 3 a2 - 150 a3 - 283 a4 - a5 - 162 a7
 - a9 + b + v129 >= 1
v_const_13: - 60 a0 - 2 a10 - a11 - 2 a12 - 2 a2 - 102 a3 - 318 a4 - a6
 - 160 a7 + b + v13 >= 1
v_const_130: - 52 a0 - a1 - 2 a10 - 4 a11 - 2 a12 - 2 a2 - 138 a3 - 223 a4
 - a6 - 169 a7 + b + v130 >= 1
v_const_131: - 63 a0 - 2 a10 - 2 a11 - 2 a12 - a2 - 140 a3 - 195 a4 - a6
 - 179 a7 + b + v131 >= 1
v_const_14: - 42 a0 - a1 - 2 a10 - 2 a12 - 140 a3 - 226 a4 - a6 - 178 a7 + b
 + v14 >= 1
v_const_15: - 47 a0 - a1 - 2 a10 - 2 a12 - 112 a3 - 204 a4 - a6 - 143 a7
 - 0.1 a9 + b + v15 >= 1
v_const_16: - 45 a0 - a10 - 2 a12 - a2 - 130 a3 - 234 a4 - 175 a7 - 0.6 a9 + b
 + v16 >= 1
v_const_17: - 52 a0 - a1 - 2 a10 - 3 a11 - 3 a12 - 108 a3 - 233 a4 - a5 - a6
 - 147 a7 - 0.1 a9 + b + v17 >= 1
v_const_18: - 48 a0 - 2 a10 - 2 a12 - 2 a2 - 130 a3 - 275 a4 - a6 - 139 a7
 - 0.2 a9 + b + v18 >= 1
v_const_19: - 35 a0 - 2 a10 - 2 a12 - 138 a3 - 183 a4 - a6 - 182 a7 - 1.4 a9
 + b + v19 >= 1
v_const_2: - 45 a0 - a10 - 2 a12 - a2 - 112 a3 - 160 a4 - a6 - 138 a7 + b + v2
 >= 1
v_const_20: - 68 a0 - a1 - 2 a10 - a11 - 3 a12 - 2 a2 - 118 a3 - 277 a4 - a6
 - 151 a7 - a9 + b + v20 >= 1
v_const_21: - 56 a0 - a10 - 2 a12 - a2 - 140 a3 - 294 a4 - 153 a7 - 1.3 a9 + b
 + v21 >= 1
v_const_22: - 51 a0 - a1 - 2 a10 - 2 a12 - 2 a2 - 110 a3 - 175 a4 - a6
 - 123 a7 - 0.6 a9 + b + v22 >= 1
v_const_23: - 51 a0 - a1 - a10 - 2 a12 - 2 a2 - 125 a3 - 245 a4 - a5 - 166 a7
 - 2.4 a9 + b + v23 >= 1
v_const_24: - 42 a0 - a10 - 2 a12 - 2 a2 - 120 a3 - 209 a4 - a6 - 173 a7 + b
 + v24 >= 1
v_const_25: - 65 a0 - 2 a10 - 2 a12 - 2 a2 - 155 a3 - 269 a4 - a6 - 148 a7
 - 0.8 a9 + b + v25 >= 1
v_const_26: - 48 a0 - a1 - a10 - 2 a12 - a2 - 130 a3 - 245 a4 - 180 a7
 - 0.2 a9 + b + v26 >= 1
v_const_27: - 57 a0 - 2 a10 - 2 a12 - 120 a3 - 354 a4 - a6 - 163 a7 - a8
 - 0.6 a9 + b + v27 >= 1
v_const_28: - 57 a0 - a1 - a10 - a12 - 110 a3 - 201 a4 - a6 - 126 a7 - a8
 - 1.5 a9 + b + v28 >= 1
v_const_29: - 44 a0 - a1 - 2 a10 - 2 a12 - a2 - 130 a3 - 219 a4 - 188 a7 + b
 + v29 >= 1
v_const_3: - 52 a0 - a1 - 2 a10 - 2 a12 - a2 - 120 a3 - 325 a4 - a6 - 172 a7
 - 0.2 a9 + b + v3 >= 1
v_const_30: - 76 a0 - a10 - 2 a12 - 2 a2 - 140 a3 - 197 a4 - 2 a6 - 116 a7
 - 1.1 a9 + b + v30 >= 1
v_const_31: - 50 a0 - 2 a10 - 2 a12 - 110 a3 - 254 a4 - 159 a7 + b + v31 >= 1
v_const_32: - 44 a0 - a1 - 2 a10 - 2 a12 - a2 - 120 a3 - 220 a4 - a6 - 170 a7
 + b + v32 >= 1
v_const_33: - 54 a0 - a1 - 2 a10 - 2 a12 - 140 a3 - 239 a4 - a6 - 160 a7
 - 1.2 a9 + b + v33 >= 1
v_const_34: - 62 a0 - a10 - 2 a12 - 140 a3 - 394 a4 - 157 a7 - 1.2 a9 + b
 + v34 >= 1
v_const_35: - 57 a0 - a1 - 2 a10 - a11 - 3 a12 - 2 a2 - 150 a3 - 126 a4 - a5
 - a6 - 173 a7 - 0.2 a9 + b + v35 >= 1
v_const_36: - 63 a0 - a1 - a12 - 3 a2 - 145 a3 - 233 a4 - a5 - 150 a7 - 2.3 a9
 + b + v36 >= 1
v_const_37: - 41 a0 - 2 a10 - 2 a12 - 2 a2 - 112 a3 - 268 a4 - 172 a7 - a8 + b
 + v37 >= 1
v_const_38: - 54 a0 - 2 a10 - 2 a12 - 2 a2 - 108 a3 - 267 a4 - 167 a7 + b
 + v38 >= 1
v_const_39: - 58 a0 - a1 - 2 a10 - 2 a12 - 2 a2 - 140 a3 - 211 a4 - a5
 - 165 a7 + b + v39 >= 1
v_const_4: - 45 a0 - a1 - a10 - 2 a12 - 104 a3 - 208 a4 - 148 a7 - a8 - 3 a9
 + b + v4 >= 1
v_const_40: - 39 a0 - a1 - 2 a10 - 2 a12 - 2 a2 - 140 a3 - 321 a4 - 182 a7 + b
 + v40 >= 1
v_const_41: - 44 a0 - a10 - a11 - 2 a12 - 2 a2 - 118 a3 - 242 a4 - a6 - 149 a7
 - 0.3 a9 + b + v41 >= 1
v_const_42: - 65 a0 - 2 a10 - a11 - 2 a12 - 2 a2 - 140 a3 - 417 a4 - a5
 - 157 a7 - 0.8 a9 + b + v42 >= 1
v_const_43: - 51 a0 - 2 a10 - a11 - 2 a12 - 2 a2 - 140 a3 - 308 a4 - 142 a7
 - 1.5 a9 + b + v43 >= 1
v_const_44: - 55 a0 - a1 - 2 a10 - 2 a12 - a2 - 130 a3 - 262 a4 - a6 - 155 a7
 + b + v44 >= 1
v_const_45: - 71 a0 - 2 a10 - 2 a11 - 2 a12 - a2 - 160 a3 - 302 a4 - a6
 - 162 a7 - 0.4 a9 + b + v45 >= 1
v_const_46: - 61 a0 - a1 - a10 - 2 a12 - 2 a2 - 150 a3 - 243 a4 - a5 - a6
 - 137 a7 - a8 - a9 + b + v46 >= 1
v_const_47: - 46 a0 - a10 - 2 a12 - 138 a3 - 243 a4 - 152 a7 - a8 + b + v47
 >= 1
v_const_48: - 45 a0 - a1 - 2 a10 - 2 a12 - a2 - 128 a3 - 308 a4 - 170 a7 + b
 + v48 >= 1
v_const_49: - 58 a0 - a1 - a10 - 3 a12 - 2 a2 - 105 a3 - 240 a4 - 154 a7 - a8
 - 0.6 a9 + b + v49 >= 1
v_const_5: - 62 a0 - 2 a10 - 2 a12 - 124 a3 - 209 a4 - a6 - 163 a7 + b + v5
 >= 1
v_const_50: - 65 a0 - 2 a10 - 2 a12 - 2 a2 - 160 a3 - 360 a4 - 151 a7 - 0.8 a9
 + b + v50 >= 1
v_const_51: - 48 a0 - a1 - 2 a10 - 2 a11 - 2 a12 - 2 a2 - 124 a3 - 255 a4 - a5
 - a6 - 175 a7 + b + v51 >= 1
v_const_52: - 50 a0 - 2 a10 - 2 a12 - a2 - 120 a3 - 244 a4 - a6 - 162 a7
 - 1.1 a9 + b + v52 >= 1
v_const_53: - 56 a0 - a1 - 2 a12 - a2 - 120 a3 - 240 a4 - a6 - 169 a7 + b
 + v53 >= 1
v_const_54: - 62 a0 - a1 - 2 a10 - 2 a12 - a2 - 128 a3 - 208 a4 - a5 - 140 a7
 + b + v54 >= 1
v_const_55: - 47 a0 - a1 - 2 a10 - 2 a12 - 2 a2 - 138 a3 - 257 a4 - 156 a7 + b
 + v55 >= 1
v_const_56: - 39 a0 - 2 a10 - 2 a12 - 2 a2 - 94 a3 - 199 a4 - a6 - 179 a7 + b
 + v56 >= 1
v_const_57: - 54 a0 - a1 - 2 a10 - 3 a12 - a2 - 108 a3 - 309 a4 - a6 - 156 a7
 + b + v57 >= 1
v_const_58: - 51 a0 - a1 - 2 a10 - 2 a12 - 140 a3 - 261 a4 - 186 a7 - a8 + b
 + v58 >= 1
v_const_59: - 54 a0 - a1 - a11 - 2 a12 - 2 a2 - 125 a3 - 273 a4 - 152 a7
 - 0.5 a9 + b + v59 >= 1
v_const_6: - 39 a0 - a10 - 2 a12 - 2 a2 - 138 a3 - 220 a4 - a6 - 152 a7 + b
 + v6 >= 1
v_const_60: - 64 a0 - 2 a10 - 3 a12 - 2 a2 - 140 a3 - 313 a4 - a6 - 133 a7
 - 0.2 a9 + b + v60 >= 1
v_const_61: - 64 a0 - a10 - 2 a11 - 2 a12 - 130 a3 - 303 a4 - a6 - 122 a7
 - 2 a9 + b + v61 >= 1
v_const_62: - 52 a0 - a10 - 2 a12 - 2 a2 - 136 a3 - 196 a4 - 169 a7 - 0.1 a9
 + b + v62 >= 1
v_const_63: - 52 a0 - a1 - a10 - a12 - 3 a2 - 118 a3 - 186 a4 - 190 a7 + b
 + v63 >= 1
v_const_64: - 38 a0 - a1 - 2 a10 - 4 a11 - 2 a12 - 2 a2 - 138 a3 - 175 a4 - a6
 - 173 a7 + b + v64 >= 1
v_const_65: - 42 a0 - a1 - 2 a10 - 2 a11 - 2 a12 - 3 a2 - 148 a3 - 244 a4
 - 178 a7 - 0.8 a9 + b + v65 >= 1
v_const_66: - 50 a0 - a1 - 2 a10 - 2 a12 - 2 a2 - 129 a3 - 196 a4 - a6
 - 163 a7 + b + v66 >= 1
v_const_67: - 44 a0 - a10 - 2 a12 - 2 a2 - 108 a3 - 141 a4 - a6 - 175 a7
 - 0.6 a9 + b + v67 >= 1
v_const_68: - 57 a0 - a1 - a10 - a12 - 140 a3 - 192 a4 - a6 - 148 a7 - 0.4 a9
 + b + v68 >= 1
v_const_69: - 46 a0 - 2 a10 - 2 a12 - a2 - 105 a3 - 204 a4 - a6 - 172 a7 + b
 + v69 >= 1
v_const_7: - 59 a0 - a1 - 2 a10 - 2 a12 - 2 a2 - 150 a3 - 212 a4 - a5 - a6
 - 157 a7 - 1.6 a9 + b + v7 >= 1
v_const_70: - 67 a0 - 2 a10 - a11 - 2 a12 - 2 a2 - 152 a3 - 277 a4 - a6
 - 172 a7 + b + v70 >= 1
v_const_71: - 64 a0 - a1 - a10 - 3 a12 - 3 a2 - 170 a3 - 227 a4 - 155 a7
 - 0.6 a9 + b + v71 >= 1
v_const_72: - 53 a0 - 2 a10 - 2 a12 - 138 a3 - 234 a4 - 160 a7 + b + v72 >= 1
v_const_73: - 46 a0 - 2 a12 - 2 a2 - 142 a3 - 177 a4 - 160 a7 - a8 - 1.4 a9
 + b + v73 >= 1
v_const_74: - 41 a0 - a1 - 2 a10 - 2 a12 - 2 a2 - 112 a3 - 250 a4 - a6
 - 179 a7 + b + v74 >= 1
v_const_75: - 59 a0 - a1 - 2 a10 - 2 a12 - a2 - 140 a3 - 221 a4 - a6 - 164 a7
 - a8 + b + v75 >= 1
v_const_76: - 51 a0 - a1 - 2 a10 - a11 - 2 a12 - 3 a2 - 125 a3 - 213 a4
 - 125 a7 - a8 - 1.4 a9 + b + v76 >= 1
v_const_77: - 44 a0 - a1 - 2 a10 - 2 a12 - 2 a2 - 140 a3 - 235 a4 - 180 a7 + b
 + v77 >= 1
v_const_78: - 44 a0 - a1 - 2 a10 - 3 a12 - a2 - 120 a3 - 263 a4 - a6 - 173 a7
 + b + v78 >= 1
v_const_79: - 53 a0 - a10 - 2 a12 - 130 a3 - 264 a4 - 143 a7 - 0.4 a9 + b
 + v79 >= 1
v_const_8: - 43 a0 - a1 - a10 - 2 a12 - 115 a3 - 303 a4 - a6 - 181 a7 - 1.2 a9
 + b + v8 >= 1
v_const_80: - 54 a0 - a1 - a10 - 3 a12 - 2 a2 - 120 a3 - 258 a4 - 147 a7
 - 0.4 a9 + b + v80 >= 1
v_const_81: - 34 a0 - 2 a10 - 2 a12 - a2 - 118 a3 - 210 a4 - a6 - 192 a7
 - 0.7 a9 + b + v81 >= 1
v_const_82: - 64 a0 - 2 a10 - 2 a12 - 180 a3 - 325 a4 - a6 - 154 a7 - a8 + b
 + v82 >= 1
v_const_83: - 57 a0 - a1 - 2 a10 - 3 a12 - 132 a3 - 207 a4 - a6 - 168 a7 - a8
 + b + v83 >= 1
v_const_84: - 52 a0 - a1 - a10 - 3 a12 - 3 a2 - 152 a3 - 298 a4 - a5 - a6
 - 178 a7 - 1.2 a9 + b + v84 >= 1
v_const_85: - 60 a0 - 2 a10 - 2 a12 - 3 a2 - 150 a3 - 240 a4 - a6 - 171 a7
 - 0.9 a9 + b + v85 >= 1
v_const_86: - 44 a0 - a1 - 2 a10 - 2 a12 - 2 a2 - 120 a3 - 226 a4 - a6
 - 169 a7 + b + v86 >= 1
v_const_87: - 58 a0 - a10 - 2 a12 - 100 a3 - 248 a4 - 122 a7 - a9 + b + v87
 >= 1
v_const_88: - 52 a0 - a1 - 2 a10 - 3 a12 - 2 a2 - 172 a3 - 199 a4 - a5 - a6
 - 162 a7 - 0.5 a9 + b + v88 >= 1
v_const_89: - 35 a0 - a1 - 2 a10 - 2 a12 - a2 - 122 a3 - 192 a4 - a6 - 174 a7
 + b + v89 >= 1
v_const_9: - 56 a0 - a1 - a10 - 3 a12 - 3 a2 - 120 a3 - 193 a4 - 162 a7
 - 1.9 a9 + b + v9 >= 1
v_const_90: - 43 a0 - a1 - 2 a10 - 3 a12 - 110 a3 - 211 a4 - a6 - 161 a7 + b
 + v90 >= 1
v_const_91: - 64 a0 - a1 - a10 - 2 a12 - 3 a2 - 110 a3 - 211 a4 - 144 a7 - a8
 - 1.8 a9 + b + v91 >= 1
v_const_92: - 57 a0 - 2 a10 - a11 - 2 a12 - 128 a3 - 303 a4 - 159 a7 + b + v92
 >= 1
v_const_93: - 51 a0 - 2 a10 - 2 a12 - 2 a2 - 120 a3 - 295 a4 - 157 a7 - 0.6 a9
 + b + v93 >= 1
v_const_94: - 56 a0 - a1 - 2 a10 - 2 a12 - a2 - 120 a3 - 236 a4 - a6 - 178 a7
 - 0.8 a9 + b + v94 >= 1
v_const_95: - 66 a0 - 2 a12 - 3 a2 - 150 a3 - 226 a4 - a6 - 114 a7 - 2.6 a9
 + b + v95 >= 1
v_const_96: - 29 a0 - a1 - 2 a10 - 2 a12 - a2 - 130 a3 - 204 a4 - 202 a7 + b
 + v96 >= 1
v_const_97: - 67 a0 - 2 a10 - 2 a11 - 2 a12 - 106 a3 - 223 a4 - a6 - 142 a7
 - 0.3 a9 + b + v97 >= 1
v_const_98: - 60 a0 - 2 a10 - 2 a12 - 2 a2 - 120 a3 - 178 a4 - a5 - a6 - 96 a7
 + b + v98 >= 1
v_const_99: - 66 a0 - a1 - 2 a10 - a12 - 160 a3 - 228 a4 - 138 a7 - 2.3 a9 + b
 + v99 >= 1
v_const_non_negativity_0: v0 >= 0
v_const_non_negativity_1: v1 >= 0
v_const_non_negativity_10: v10 >= 0
v_const_non_negativity_100: v100 >= 0
v_const_non_negativity_101: v101 >= 0
v_const_non_negativity_102: v102 >= 0
v_const_non_negativity_103: v103 >= 0
v_const_non_negativity_104: v104 >= 0
v_const_non_negativity_105: v105 >= 0
v_const_non_negativity_106: v106 >= 0
v_const_non_negativity_107: v107 >= 0
v_const_non_negativity_108: v108 >= 0
v_const_non_negativity_109: v109 >= 0
v_const_non_negativity_11: v11 >= 0
v_const_non_negativity_110: v110 >= 0
v_const_non_negativity_111: v111 >= 0
v_const_non_negativity_112: v112 >= 0
v_const_non_negativity_113: v113 >= 0
v_const_non_negativity_114: v114 >= 0
v_const_non_negativity_115: v115 >= 0
v_const_non_negativity_116: v116 >= 0
v_const_non_negativity_117: v117 >= 0
v_const_non_negativity_118: v118 >= 0
v_const_non_negativity_119: v119 >= 0
v_const_non_negativity_12: v12 >= 0
v_const_non_negativity_120: v120 >= 0
v_const_non_negativity_121: v121 >= 0
v_const_non_negativity_122: v122 >= 0
v_const_non_negativity_123: v123 >= 0
v_const_non_negativity_124: v124 >= 0
v_const_non_negativity_125: v125 >= 0
v_const_non_negativity_126: v126 >= 0
v_const_non_negativity_127: v127 >= 0
v_const_non_negativity_128: v128 >= 0
v_const_non_negativity_129: v129 >= 0
v_const_non_negativity_13: v13 >= 0
v_const_non_negativity_130: v130 >= 0
v_const_non_negativity_131: v131 >= 0
v_const_non_negativity_14: v14 >= 0
v_const_non_negativity_15: v15 >= 0
v_const_non_negativity_16: v16 >= 0
v_const_non_negativity_17: v17 >= 0
v_const_non_negativity_18: v18 >= 0
v_const_non_negativity_19: v19 >= 0
v_const_non_negativity_2: v2 >= 0
v_const_non_negativity_20: v20 >= 0
v_const_non_negativity_21: v21 >= 0
v_const_non_negativity_22: v22 >= 0
v_const_non_negativity_23: v23 >= 0
v_const_non_negativity_24: v24 >= 0
v_const_non_negativity_25: v25 >= 0
v_const_non_negativity_26: v26 >= 0
v_const_non_negativity_27: v27 >= 0
v_const_non_negativity_28: v28 >= 0
v_const_non_negativity_29: v29 >= 0
v_const_non_negativity_3: v3 >= 0
v_const_non_negativity_30: v30 >= 0
v_const_non_negativity_31: v31 >= 0
v_const_non_negativity_32: v32 >= 0
v_const_non_negativity_33: v33 >= 0
v_const_non_negativity_34: v34 >= 0
v_const_non_negativity_35: v35 >= 0
v_const_non_negativity_36: v36 >= 0
v_const_non_negativity_37: v37 >= 0
v_const_non_negativity_38: v38 >= 0
v_const_non_negativity_39: v39 >= 0
v_const_non_negativity_4: v4 >= 0
v_const_non_negativity_40: v40 >= 0
v_const_non_negativity_41: v41 >= 0
v_const_non_negativity_42: v42 >= 0
v_const_non_negativity_43: v43 >= 0
v_const_non_negativity_44: v44 >= 0
v_const_non_negativity_45: v45 >= 0
v_const_non_negativity_46: v46 >= 0
v_const_non_negativity_47: v47 >= 0
v_const_non_negativity_48: v48 >= 0
v_const_non_negativity_49: v49 >= 0
v_const_non_negativity_5: v5 >= 0
v_const_non_negativity_50: v50 >= 0
v_const_non_negativity_51: v51 >= 0
v_const_non_negativity_52: v52 >= 0
v_const_non_negativity_53: v53 >= 0
v_const_non_negativity_54: v54 >= 0
v_const_non_negativity_55: v55 >= 0
v_const_non_negativity_56: v56 >= 0
v_const_non_negativity_57: v57 >= 0
v_const_non_negativity_58: v58 >= 0
v_const_non_negativity_59: v59 >= 0
v_const_non_negativity_6: v6 >= 0
v_const_non_negativity_60: v60 >= 0
v_const_non_negativity_61: v61 >= 0
v_const_non_negativity_62: v62 >= 0
v_const_non_negativity_63: v63 >= 0
v_const_non_negativity_64: v64 >= 0
v_const_non_negativity_65: v65 >= 0
v_const_non_negativity_66: v66 >= 0
v_const_non_negativity_67: v67 >= 0
v_const_non_negativity_68: v68 >= 0
v_const_non_negativity_69: v69 >= 0
v_const_non_negativity_7: v7 >= 0
v_const_non_negativity_70: v70 >= 0
v_const_non_negativity_71: v71 >= 0
v_const_non_negativity_72: v72 >= 0
v_const_non_negativity_73: v73 >= 0
v_const_non_negativity_74: v74 >= 0
v_const_non_negativity_75: v75 >= 0
v_const_non_negativity_76: v76 >= 0
v_const_non_negativity_77: v77 >= 0
v_const_non_negativity_78: v78 >= 0
v_const_non_negativity_79: v79 >= 0
v_const_non_negativity_8: v8 >= 0
v_const_non_negativity_80: v80 >= 0
v_const_non_negativity_81: v81 >= 0
v_const_non_negativity_82: v82 >= 0
v_const_non_negativity_83: v83 >= 0
v_const_non_negativity_84: v84 >= 0
v_const_non_negativity_85: v85 >= 0
v_const_non_negativity_86: v86 >= 0
v_const_non_negativity_87: v87 >= 0
v_const_non_negativity_88: v88 >= 0
v_const_non_negativity_89: v89 >= 0
v_const_non_negativity_9: v9 >= 0
v_const_non_negativity_90: v90 >= 0
v_const_non_negativity_91: v91 >= 0
v_const_non_negativity_92: v92 >= 0
v_const_non_negativity_93: v93 >= 0
v_const_non_negativity_94: v94 >= 0
v_const_non_negativity_95: v95 >= 0
v_const_non_negativity_96: v96 >= 0
v_const_non_negativity_97: v97 >= 0
v_const_non_negativity_98: v98 >= 0
v_const_non_negativity_99: v99 >= 0
End
